Set parameter TokenServer to value "hpc-licenses.hpcc.usc.edu"
Set parameter TimeLimit to value 3600
Gurobi Optimizer version 9.5.1 build v9.5.1rc2 (linux64)
Thread count: 20 physical cores, 20 logical processors, using up to 20 threads
Optimize a model with 6007 rows, 4529 columns and 24534 nonzeros
Model fingerprint: 0xf852bd8a
Variable types: 4506 continuous, 23 integer (23 binary)
Coefficient statistics:
  Matrix range     [1e+00, 1e+00]
  Objective range  [6e-03, 1e+00]
  Bounds range     [1e+00, 1e+00]
  RHS range        [1e+00, 8e+01]
Found heuristic solution: objective 296.7636365
Presolve removed 1514 rows and 1511 columns
Presolve time: 0.07s
Presolved: 4493 rows, 3018 columns, 21993 nonzeros
Variable types: 2998 continuous, 20 integer (20 binary)

Root relaxation: objective 2.998163e+02, 2639 iterations, 0.13 seconds (0.14 work units)

    Nodes    |    Current Node    |     Objective Bounds      |     Work
 Expl Unexpl |  Obj  Depth IntInf | Incumbent    BestBd   Gap | It/Node Time

     0     0  299.81628    0    2  296.76364  299.81628  1.03%     -    0s
H    0     0                     299.5719821  299.81628  0.08%     -    0s
     0     0  299.79400    0    5  299.57198  299.79400  0.07%     -    0s
     0     0  299.79400    0    2  299.57198  299.79400  0.07%     -    0s
     0     0  299.78578    0    4  299.57198  299.78578  0.07%     -    0s

Cutting planes:
  Gomory: 4
  Implied bound: 166
  MIR: 30
  Flow cover: 309
  Relax-and-lift: 116

Explored 1 nodes (4305 simplex iterations) in 1.01 seconds (0.44 work units)
Thread count was 20 (of 20 available processors)

Solution count 2: 299.572 296.764 

Optimal solution found (tolerance 1.00e-04)
Best objective 2.995719820991e+02, best bound 2.995739503186e+02, gap 0.0007%



#########node  1
V1.9
#########node  2
0.0,1.0
#########node  3
1.0,0.0


Total Solving Time 1.4253630638122559
obj value 299.57198209910877
Policy Regret train (Sum) 1.2671902492705043
Best Treatment Found train (%) 86.2
treatment classification acc train (%) 54.6
Policy Regret test (Sum) 171.4960881571544
Best Treatment Found test (%) 52.800000000000004
treatment classification acc test (%) 56.3
